p cnf 240 454
5  -3  -4  0
7  -5  -6  0
9  -7  8  0
-11  -9  10  0
-13  11  -12  0
-15  13  14  0
-17  -15  16  0
19  -17  -18  0
21  -19  -20  0
23  21  -22  0
25  -23  -24  0
27  25  -26  0
-29  27  28  0
-31  29  30  0
-35  33  34  0
37  -35  36  0
39  37  38  0
-41  -39  -40  0
43  41  42  0
-45  -43  -44  0
-47  45  46  0
49  47  48  0
-51  -49  50  0
53  -51  -52  0
55  -53  54  0
-57  -55  56  0
-59  57  58  0
61  59  60  0
63  61  62  0
-65  63  -64  0
-67  -65  -66  0
69  -67  68  0
71  69  70  0
73  71  -72  0
-75  -73  74  0
-77  75  -76  0
-79  77  -78  0
81  79  80  0
83  -81  82  0
-85  83  84  0
-87  85  -86  0
89  -87  88  0
-91  -89  90  0
93  91  -92  0
95  -93  -94  0
97  -95  -96  0
-99  -97  98  0
-101  -99  -100  0
-103  101  -102  0
105  103  -104  0
107  -105  106  0
109  -107  -108  0
111  -109  -110  0
113  -111  112  0
-115  113  114  0
-117  115  116  0
119  117  118  0
121  -119  120  0
-123  121  122  0
125  123  -124  0
-127  125  126  0
129  127  -128  0
131  -129  130  0
-133  131  132  0
135  133  -134  0
137  135  -136  0
-139  137  138  0
-141  -139  -140  0
-143  141  142  0
145  143  -144  0
147  145  -146  0
-149  -147  148  0
-151  149  150  0
-153  -151  -152  0
-155  -153  154  0
157  155  -156  0
159  -157  -158  0
161  -159  -160  0
163  161  -162  0
-167  -165  -166  0
169  167  -168  0
171  169  170  0
-173  171  -172  0
175  -173  -174  0
-177  175  176  0
179  -177  -178  0
181  179  -180  0
-183  181  182  0
185  -183  -184  0
187  185  186  0
189  -187  -188  0
191  189  190  0
193  191  -192  0
195  193  194  0
-197  195  -196  0
-199  197  -198  0
201  -199  -200  0
203  201  -202  0
-205  -203  204  0
-207  -205  206  0
209  207  -208  0
211  -209  -210  0
-213  211  -212  0
-215  213  214  0
-217  -215  -216  0
219  -217  218  0
221  219  -220  0
223  221  -222  0
225  -223  224  0
227  225  226  0
229  -227  228  0
-231  -229  230  0
-233  -231  -232  0
235  233  234  0
237  235  -236  0
-239  -237  -238  0
-4  3  2  0
-4  3  1  0
-4  1  2  0
6  -5  -4  0
6  -5  -3  0
6  3  -4  0
8  -7  -6  0
8  -7  5  0
8  -5  6  0
10  9  -8  0
10  -9  -7  0
-10  7  -8  0
-12  11  -10  0
-12  -11  9  0
-12  9  10  0
-14  13  -12  0
14  -11  12  0
16  15  14  0
16  15  13  0
-16  -13  14  0
-18  17  -15  0
-18  -15  16  0
20  19  -18  0
-20  -19  17  0
-20  -17  -18  0
22  -21  20  0
-22  21  19  0
-22  19  -20  0
-24  23  -22  0
24  -21  -22  0
26  25  24  0
-26  -25  23  0
26  23  -24  0
-28  25  -26  0
30  -29  -28  0
-30  -29  -27  0
30  27  -28  0
-32  -31  -30  0
-32  -31  29  0
32  -29  -30  0
-34  33  -32  0
34  33  31  0
-36  35  34  0
36  -35  33  0
-36  33  34  0
38  37  36  0
38  37  35  0
38  -35  36  0
-40  -39  -38  0
-40  -39  -37  0
-40  37  -38  0
42  41  40  0
42  -41  39  0
42  -39  40  0
-44  -43  -42  0
44  43  41  0
44  -41  -42  0
-46  45  44  0
46  -45  -43  0
46  43  -44  0
48  -47  -46  0
48  47  -45  0
-48  45  46  0
50  49  48  0
50  -49  47  0
-50  47  -48  0
-52  51  -50  0
52  -51  -49  0
52  49  -50  0
-54  53  52  0
-54  -53  -51  0
54  51  -52  0
56  55  -54  0
56  -55  -53  0
56  -53  -54  0
-58  -57  56  0
-58  -57  55  0
-58  -55  56  0
60  -59  58  0
-60  -59  -57  0
-60  -57  58  0
62  -61  60  0
-62  -61  -59  0
-62  -59  60  0
64  63  62  0
64  63  -61  0
64  -61  -62  0
-66  -65  -63  0
66  63  64  0
-68  67  -66  0
68  67  -65  0
-68  65  66  0
-70  -69  68  0
-70  69  67  0
-70  -67  68  0
72  -71  70  0
-72  71  69  0
-72  -69  70  0
-74  -73  72  0
74  -73  71  0
-76  75  -74  0
-76  75  73  0
-76  -73  -74  0
78  -77  76  0
-78  77  75  0
78  75  76  0
80  79  -78  0
-80  79  -77  0
-80  77  78  0
82  81  -80  0
82  -81  -79  0
-82  79  80  0
84  -83  82  0
-84  -83  81  0
-84  81  82  0
86  85  84  0
-86  85  -83  0
86  83  84  0
88  87  -86  0
88  87  -85  0
-88  -85  86  0
-90  -89  88  0
-90  89  87  0
90  87  -88  0
92  -91  90  0
-92  91  -89  0
92  89  90  0
94  -93  92  0
-94  91  -92  0
96  -95  -94  0
96  -95  93  0
96  93  94  0
98  -97  96  0
-98  97  95  0
98  -95  96  0
100  99  98  0
100  -99  -97  0
-100  97  -98  0
102  -101  100  0
-102  -101  -99  0
102  99  -100  0
104  103  102  0
-104  -103  -101  0
-104  101  -102  0
-106  105  104  0
106  105  103  0
-106  -103  -104  0
108  -107  106  0
-108  107  105  0
108  -105  106  0
110  109  -108  0
-110  109  107  0
-110  107  -108  0
112  111  110  0
112  111  109  0
112  109  110  0
-114  113  112  0
114  113  111  0
-114  -111  -112  0
116  -115  114  0
116  115  -113  0
-116  -113  114  0
-118  -117  116  0
-118  -117  115  0
120  -119  118  0
120  119  -117  0
-120  -117  118  0
122  -121  120  0
122  121  119  0
-122  119  -120  0
124  123  122  0
-124  123  121  0
-124  121  122  0
-126  -125  -124  0
126  -125  123  0
-126  123  -124  0
-128  -127  -126  0
-128  127  -125  0
-130  129  128  0
-130  129  127  0
-130  127  -128  0
-132  -131  -130  0
132  131  129  0
132  -129  130  0
-134  -133  -132  0
134  -133  131  0
-134  131  132  0
-136  135  133  0
-136  -133  134  0
-138  137  -136  0
138  137  135  0
-138  -135  136  0
-140  -139  -138  0
-140  -139  -137  0
-140  137  -138  0
142  141  -140  0
142  141  -139  0
142  139  140  0
144  -143  -142  0
-144  143  -141  0
144  -141  -142  0
146  -145  -144  0
146  -145  -143  0
146  -143  -144  0
-148  -147  146  0
148  -147  145  0
-148  145  -146  0
-150  -149  148  0
150  -149  -147  0
150  147  148  0
152  151  -150  0
152  151  149  0
152  149  150  0
154  153  152  0
-154  153  151  0
154  151  -152  0
156  155  153  0
156  -153  -154  0
158  157  156  0
158  -157  -155  0
-158  -155  -156  0
160  159  -158  0
160  159  157  0
-160  -157  158  0
162  161  160  0
-162  -161  159  0
-164  -163  162  0
164  -163  -161  0
-166  -165  164  0
-166  -165  163  0
-166  163  164  0
-168  167  -166  0
-168  167  -165  0
-168  165  -166  0
170  -169  168  0
170  -169  167  0
170  -167  168  0
-172  -171  -170  0
-172  -171  -169  0
-174  173  172  0
-174  173  171  0
-174  171  -172  0
176  -175  -174  0
-176  -175  173  0
-176  -173  174  0
-178  177  176  0
178  -177  175  0
178  -175  176  0
180  -179  178  0
180  179  -177  0
180  -177  -178  0
-182  -181  -180  0
-182  181  -179  0
-182  -179  180  0
-184  183  181  0
-184  181  182  0
-186  -185  -184  0
-186  185  183  0
-186  -183  184  0
-188  -187  186  0
-188  -187  185  0
-188  185  186  0
-190  -189  188  0
190  -189  -187  0
-190  187  188  0
192  191  190  0
-192  191  189  0
-192  189  -190  0
194  193  192  0
-194  193  191  0
-194  191  192  0
196  -195  -194  0
196  195  -193  0
196  -193  -194  0
-198  -197  -195  0
-198  195  -196  0
200  -199  -198  0
-200  197  -198  0
202  201  200  0
202  -201  -199  0
202  199  200  0
-204  203  -202  0
204  -203  -201  0
-204  201  202  0
-206  205  204  0
206  -205  -203  0
-206  203  204  0
-208  207  206  0
-208  -207  205  0
-208  -205  -206  0
210  -209  -208  0
-210  -209  207  0
-210  -207  208  0
-212  211  -210  0
212  211  -209  0
212  209  210  0
214  213  -212  0
-214  -213  -211  0
214  -211  212  0
-216  215  214  0
216  -215  213  0
-216  -213  -214  0
218  217  216  0
218  -217  215  0
218  215  216  0
-220  -219  -218  0
220  -219  -217  0
220  -217  -218  0
-222  -221  220  0
222  221  -219  0
-222  -219  -220  0
-224  -223  -222  0
224  223  -221  0
-224  -221  222  0
226  -225  224  0
226  225  223  0
-226  223  -224  0
-228  -227  226  0
-228  227  -225  0
-228  -225  226  0
-230  229  -228  0
230  229  -227  0
230  227  -228  0
-232  -231  -230  0
-232  -231  229  0
-232  229  230  0
234  233  -232  0
-234  233  -231  0
234  -231  232  0
-236  -235  -234  0
-236  235  233  0
236  233  234  0
-238  237  236  0
238  -237  235  0
-238  -235  236  0
240  -239  238  0
-240  239  -237  0
240  -237  238  0
